# Instance R209 - 90 dynamic requests - 10 static requests
Dyn   Stat
90    10
ID    RD
5     -1
27    -1
29    -1
33    -1
50    -1
59    -1
72    -1
83    -1
84    -1
95    -1
1     478
2     73
3     154
4     177
6     220
7     10
8     50
9     126
10    5
11    25
12    71
13    139
14    11
15    8
16    91
17    268
18    239
19    115
20    533
21    59
22    272
23    35
24    560
25    260
26    229
28    36
30    9
31    53
32    203
34    43
35    335
36    28
37    449
38    5
39    29
40    86
41    171
42    4
43    49
44    71
45    14
46    340
47    12
48    403
49    190
51    190
52    32
53    258
54    233
55    119
56    13
57    174
58    214
60    48
61    49
62    21
63    18
64    10
65    27
66    267
67    49
68    363
69    6
70    108
71    172
73    133
74    365
75    124
76    44
77    118
78    172
79    16
80    377
81    209
82    88
85    75
86    172
87    339
88    58
89    553
90    190
91    537
92    5
93    3
94    159
96    207
97    458
98    60
99    150
100   107
